width,height
25,25
6,2
3,1
5,4
5,5
6,3
6,4
4,5
5,5
9,1
9,3
6,5
4,1
4,1
1,3
4,4
1,5
3,5
6,5
9,3
9,5
9,4
8,5
3,5
5,2
10,2
6,5
7,5
5,1
10,3
9,3
6,2
7,1
6,2
6,4
2,5
2,4
6,3
7,1
7,2
3,2
4,2
9,1
2,2
3,5
7,1
1,4
7,3
6,5
10,1
8,3
9,5
1,1
6,4
1,2
2,5
2,4
3,4
8,1
9,3
7,1
8,4
2,5
5,5
4,5
8,5
9,1
1,4
10,4
1,4
3,1
10,1
2,5
6,4
1,5
2,5
1,5
10,4
3,4
6,4
10,1
10,3
7,4
1,1
1,1
4,5
3,3
4,4
8,3
8,3
3,2
10,3
10,3
1,3
1,2
8,5
9,3
5,1
4,5
7,4
5,3
